(set-info :original "../sandbox/testgen_5/testgen_5.bc")
(set-info :authors "SeaHorn v.10.0.0-rc0")
(declare-rel verifier.error (Bool Bool Bool ))
(declare-rel main@_loop.bound ())
(declare-rel main@empty.loop (Int ))
(declare-rel main@_spec.select2 (Int Int Int ))
(declare-rel main@_ret ())
(declare-var main@%_4_0 Int )
(declare-var main@%_5_0 Bool )
(declare-var main@%_spec.select3_0 Int )
(declare-var main@%_7_0 Bool )
(declare-var main@%_spec.select_0 Int )
(declare-var main@%_9_0 Int )
(declare-var main@%_br_0 Bool )
(declare-var main@%nd.loop.cond_0 Bool )
(declare-var main@%spec.select2_2 Int )
(declare-var main@%.011_2 Int )
(declare-var main@%_call_0 Bool )
(declare-var main@_loop.bound_0 Bool )
(declare-var main@%loop.bound_0 Int )
(declare-var main@empty.loop_0 Bool )
(declare-var main@empty.loop.body_0 Bool )
(declare-var main@empty.loop_1 Bool )
(declare-var main@_spec.select2_0 Bool )
(declare-var main@%spec.select2_0 Int )
(declare-var main@%.011_0 Int )
(declare-var main@%spec.select2_1 Int )
(declare-var main@%.011_1 Int )
(declare-var main@%spec.select3_0 Int )
(declare-var main@%spec.select_0 Int )
(declare-var main@_spec.select2_1 Bool )
(declare-var main@_ret_0 Bool )
(rule (verifier.error false false false))
(rule (verifier.error false true true))
(rule (verifier.error true false true))
(rule (verifier.error true true true))
(rule main@_loop.bound)
(rule (=> (and main@_loop.bound
         true
         (= main@%_call_0 (= main@%loop.bound_0 100000))
         main@%_call_0
         (=> main@empty.loop_0 (and main@empty.loop_0 main@_loop.bound_0))
         main@empty.loop_0)
    (main@empty.loop main@%loop.bound_0)))
(rule (=> (and (main@empty.loop main@%loop.bound_0)
         true
         (=> main@empty.loop.body_0
             (and main@empty.loop.body_0 main@empty.loop_0))
         (=> (and main@empty.loop.body_0 main@empty.loop_0)
             main@%nd.loop.cond_0)
         (=> main@empty.loop_1 (and main@empty.loop_1 main@empty.loop.body_0))
         main@empty.loop_1)
    (main@empty.loop main@%loop.bound_0)))
(rule (=> (and (main@empty.loop main@%loop.bound_0)
         true
         (=> main@_spec.select2_0 (and main@_spec.select2_0 main@empty.loop_0))
         (=> (and main@_spec.select2_0 main@empty.loop_0)
             (not main@%nd.loop.cond_0))
         (=> (and main@_spec.select2_0 main@empty.loop_0)
             (= main@%spec.select2_0 2391))
         (=> (and main@_spec.select2_0 main@empty.loop_0)
             (= main@%.011_0 10865))
         (=> (and main@_spec.select2_0 main@empty.loop_0)
             (= main@%spec.select2_1 main@%spec.select2_0))
         (=> (and main@_spec.select2_0 main@empty.loop_0)
             (= main@%.011_1 main@%.011_0))
         main@_spec.select2_0)
    (main@_spec.select2 main@%spec.select2_1 main@%.011_1 main@%loop.bound_0)))
(rule (=> (and (main@_spec.select2
           main@%spec.select2_0
           main@%.011_0
           main@%loop.bound_0)
         true
         (= main@%_4_0 (rem main@%spec.select2_0 2))
         (= main@%_5_0 (= main@%_4_0 1))
         (= main@%_spec.select3_0 (ite main@%_5_0 1 0))
         (= main@%spec.select3_0 (+ main@%.011_0 main@%_spec.select3_0))
         (= main@%_7_0 (> main@%spec.select3_0 4))
         (= main@%_spec.select_0 (ite main@%_7_0 1 0))
         (= main@%spec.select_0 (+ main@%spec.select2_0 main@%_spec.select_0))
         (= main@%_9_0 (+ main@%spec.select_0 main@%spec.select3_0))
         (= main@%_br_0 (= main@%_9_0 main@%loop.bound_0))
         (=> main@_spec.select2_1
             (and main@_spec.select2_1 main@_spec.select2_0))
         (=> (and main@_spec.select2_1 main@_spec.select2_0) (not main@%_br_0))
         (=> (and main@_spec.select2_1 main@_spec.select2_0)
             (= main@%spec.select2_1 main@%spec.select_0))
         (=> (and main@_spec.select2_1 main@_spec.select2_0)
             (= main@%.011_1 main@%spec.select3_0))
         (=> (and main@_spec.select2_1 main@_spec.select2_0)
             (= main@%spec.select2_2 main@%spec.select2_1))
         (=> (and main@_spec.select2_1 main@_spec.select2_0)
             (= main@%.011_2 main@%.011_1))
         main@_spec.select2_1)
    (main@_spec.select2 main@%spec.select2_2 main@%.011_2 main@%loop.bound_0)))
(rule (=> (and (main@_spec.select2
           main@%spec.select2_0
           main@%.011_0
           main@%loop.bound_0)
         true
         (= main@%_4_0 (rem main@%spec.select2_0 2))
         (= main@%_5_0 (= main@%_4_0 1))
         (= main@%_spec.select3_0 (ite main@%_5_0 1 0))
         (= main@%spec.select3_0 (+ main@%.011_0 main@%_spec.select3_0))
         (= main@%_7_0 (> main@%spec.select3_0 4))
         (= main@%_spec.select_0 (ite main@%_7_0 1 0))
         (= main@%spec.select_0 (+ main@%spec.select2_0 main@%_spec.select_0))
         (= main@%_9_0 (+ main@%spec.select_0 main@%spec.select3_0))
         (= main@%_br_0 (= main@%_9_0 main@%loop.bound_0))
         (=> main@_ret_0 (and main@_ret_0 main@_spec.select2_0))
         (=> (and main@_ret_0 main@_spec.select2_0) main@%_br_0)
         main@_ret_0)
    main@_ret))
(query main@_ret)

